
Log started (V12.6.3.0) Thu Mar  5 15:39:28 2020


Problem 'testFile_1_1.lp' read.
Read time = 4.08 sec. (118.29 ticks)
New value for mixed integer optimality gap tolerance: 0.15
New value for relative objective gap: 0.0001
New value for solution pool replacement strategy: 2
New value for solutions limit for each populate call: 500
New value for capacity of solution pool: 100
New value for intensity for populating the MIP solution pool: 4
New value for time limit in seconds: 500

Populate: phase I 
Tried aggregator 2 times.
MIP Presolve eliminated 614530 rows and 96043 columns.
MIP Presolve modified 17108 coefficients.
Aggregator did 1137 substitutions.
Reduced MIP has 407732 rows, 213324 columns, and 1298283 nonzeros.
Reduced MIP has 204179 binaries, 4618 generals, 0 SOSs, and 0 indicators.
Presolve time = 6.97 sec. (2404.99 ticks)
Found incumbent of value 14.897661 after 8.57 sec. (2668.03 ticks)
Elapsed time = 71.42 sec. (10000.08 ticks) for 27% of probing (804 vars fixed)
Probing fixed 1505 vars, tightened 287 bounds.
Probing time = 131.71 sec. (18725.98 ticks)
Tried aggregator 3 times.
MIP Presolve eliminated 42584 rows and 64668 columns.
MIP Presolve modified 10 coefficients.
Aggregator did 79 substitutions.
Reduced MIP has 365069 rows, 148577 columns, and 1190932 nonzeros.
Reduced MIP has 139581 binaries, 4469 generals, 0 SOSs, and 0 indicators.
Presolve time = 8.96 sec. (2174.91 ticks)
Elapsed time = 83.32 sec. (10000.21 ticks) for 44% of probing (44 vars fixed)
Probing fixed 395 vars, tightened 11 bounds.
Probing time = 121.80 sec. (14472.44 ticks)
Tried aggregator 3 times.
MIP Presolve eliminated 123967 rows and 108753 columns.
Aggregator did 1334 substitutions.
Reduced MIP has 239768 rows, 38490 columns, and 878170 nonzeros.
Reduced MIP has 30565 binaries, 3398 generals, 0 SOSs, and 0 indicators.
Presolve time = 7.35 sec. (1414.33 ticks)
Probing time = 0.61 sec. (39.78 ticks)
Tried aggregator 1 time.
Reduced MIP has 239768 rows, 38490 columns, and 878170 nonzeros.
Reduced MIP has 30565 binaries, 3398 generals, 0 SOSs, and 0 indicators.
Presolve time = 1.12 sec. (268.44 ticks)
Probing fixed 1083 vars, tightened 266 bounds.
Probing time = 19.42 sec. (1687.40 ticks)
Clique table members: 477401.
MIP emphasis: balance optimality and feasibility.
MIP search method: dynamic search.
Parallel mode: deterministic, using up to 4 threads.
Root relaxation solution time = 3.77 sec. (592.29 ticks)

        Nodes                                         Cuts/
   Node  Left     Objective  IInf  Best Integer    Best Bound    ItCnt     Gap

*     0+    0                           14.8977        2.1898            85.30%
*     0+    0                            8.2589        2.1898            73.49%
      0     0        8.2589   409        8.2589        8.2589     1590    0.00%

Root node processing (before b&c):
  Real time             =  313.54 sec. (43768.31 ticks)
Parallel b&c, 4 threads:
  Real time             =    0.00 sec. (0.00 ticks)
  Sync time (average)   =    0.00 sec.
  Wait time (average)   =    0.00 sec.
                          ------------
Total (root+branch&cut) =  313.54 sec. (43768.31 ticks)

Populate: phase II 
MIP emphasis: balance optimality and feasibility.
MIP search method: dynamic search.
Parallel mode: deterministic, using up to 4 threads.

        Nodes                                         Cuts/
   Node  Left     Objective  IInf  Best Integer    Best Bound    ItCnt     Gap

      0     2        8.2589   409        8.2589        8.2589     1590    0.00%
Elapsed time = 325.75 sec. (46568.02 ticks, tree = 0.01 MB, solutions = 1)
      1     3        8.2589   400        8.2589        8.2589     1591    0.00%
      2     4        8.2589   396        8.2589        8.2589     1592    0.00%
      3     5        8.2589   391        8.2589        8.2589     1593    0.00%
      4     6        8.2589   387        8.2589        8.2589     1594    0.00%
      5     7        8.2589   382        8.2589        8.2589     1595    0.00%
      6     8        8.2589   378        8.2589        8.2589     1596    0.00%
      7     9        8.2589   374        8.2589        8.2589     1597    0.00%
      8    10        8.2589   370        8.2589        8.2589     1598    0.00%
      9    11        8.2589   366        8.2589        8.2589     1599    0.00%
     10    12        8.2589   362        8.2589        8.2589     1600    0.00%
Elapsed time = 348.31 sec. (60375.17 ticks, tree = 0.01 MB, solutions = 1)
     14    14        8.2589   352        8.2589        8.2589     1669    0.00%
     15    15        8.2589   346        8.2589        8.2589     1670    0.00%
     16    16        8.2589   340        8.2589        8.2589     1671    0.00%
     17    17        8.2589   335        8.2589        8.2589     1672    0.00%
     18    18        8.2589   330        8.2589        8.2589     1673    0.00%
     19    19        8.2589   325        8.2589        8.2589     1674    0.00%
     20    20        8.2589   319        8.2589        8.2589     1675    0.00%
     21    21        8.2589   315        8.2589        8.2589     1676    0.00%
     22    22        8.2589   310        8.2589        8.2589     1677    0.00%
     23    23        8.2589   306        8.2589        8.2589     1678    0.00%
Elapsed time = 351.22 sec. (61614.63 ticks, tree = 0.01 MB, solutions = 1)
     42    41        8.2589   230        8.2589        8.2589     1717    0.00%
     43    42        8.2589   227        8.2589        8.2589     1718    0.00%
     44    43        8.2589   224        8.2589        8.2589     1719    0.00%
     45    44        8.2589   221        8.2589        8.2589     1720    0.00%
     46    45        8.2589   218        8.2589        8.2589     1721    0.00%
     47    46        8.2589   215        8.2589        8.2589     1722    0.00%
     48    47        8.2589   212        8.2589        8.2589     1723    0.00%
     49    48        8.2589   209        8.2589        8.2589     1724    0.00%
     50    49        8.2589   204        8.2589        8.2589     1725    0.00%
     51    50        8.2589   199        8.2589        8.2589     1727    0.00%
Elapsed time = 353.44 sec. (62896.81 ticks, tree = 0.01 MB, solutions = 1)
     71    70        8.2589   128        8.2589        8.2589     1747    0.00%
     72    71        8.2589   125        8.2589        8.2589     1748    0.00%
     73    72        8.2589   122        8.2589        8.2589     1749    0.00%
     74    73        8.2589   117        8.2589        8.2589     1750    0.00%
     75    74        8.2589   113        8.2589        8.2589     1751    0.00%
     76    75        8.2589   109        8.2589        8.2589     1752    0.00%
     77    76        8.2589   106        8.2589        8.2589     1753    0.00%
     78    77        8.2589   103        8.2589        8.2589     1754    0.00%
     79    78        8.2589   100        8.2589        8.2589     1755    0.00%
     80    79        8.2589    97        8.2589        8.2589     1756    0.00%
Elapsed time = 355.95 sec. (64186.48 ticks, tree = 0.01 MB, solutions = 1)
    107   106        8.2589     4        8.2589        8.2589     1783    0.00%
    108   106        8.4756     9        8.2589        8.2589     1801    0.00%
    109   107        8.2589     1        8.2589        8.2589     1802    0.00%
    110   107        8.2803     0        8.2589        8.2589     1802    0.00%
    111   108        8.2589     1        8.2589        8.2589     1802    0.00%
    112   108        8.2797     0        8.2589        8.2589     1802    0.00%
    113   109        8.2589     1        8.2589        8.2589     1802    0.00%
    114   109        8.2796     0        8.2589        8.2589     1802    0.00%
    115   110        8.2589     1        8.2589        8.2589     1802    0.00%
    116   110        8.2792     0        8.2589        8.2589     1802    0.00%
Elapsed time = 359.45 sec. (66084.42 ticks, tree = 0.81 MB, solutions = 1)
    131   118        8.2589     1        8.2589        8.2589     1802    0.00%
    132   118        8.2782     0        8.2589        8.2589     1802    0.00%
    133   119        8.2589     1        8.2589        8.2589     1802    0.00%
    134   119        8.2780     0        8.2589        8.2589     1802    0.00%
    135   120        8.2589     1        8.2589        8.2589     1802    0.00%
    136   120        8.2778     0        8.2589        8.2589     1802    0.00%
    137   121        8.2589     1        8.2589        8.2589     1802    0.00%
    138   121        8.2777     0        8.2589        8.2589     1802    0.00%
    139   122        8.2589     1        8.2589        8.2589     1802    0.00%
    140   122        8.2773     0        8.2589        8.2589     1802    0.00%
Elapsed time = 361.03 sec. (67603.63 ticks, tree = 1.26 MB, solutions = 1)
    155   130        8.2589     1        8.2589        8.2589     1802    0.00%
    156   130        8.2756     0        8.2589        8.2589     1802    0.00%
    157   131        8.2589     1        8.2589        8.2589     1802    0.00%
    158   131        8.2753     0        8.2589        8.2589     1802    0.00%
    159   132        8.2589     1        8.2589        8.2589     1802    0.00%
    160   132        8.2750     0        8.2589        8.2589     1802    0.00%
    161   133        8.2589     1        8.2589        8.2589     1802    0.00%
    162   133        8.2750     0        8.2589        8.2589     1802    0.00%
    163   134        8.2589     1        8.2589        8.2589     1802    0.00%
    164   134        8.2749     0        8.2589        8.2589     1802    0.00%
Elapsed time = 362.76 sec. (69110.78 ticks, tree = 1.57 MB, solutions = 1)
    179   142        8.2589     1        8.2589        8.2589     1802    0.00%
    180   142        8.2733     0        8.2589        8.2589     1802    0.00%
    181   143        8.2589     1        8.2589        8.2589     1802    0.00%
    182   143        8.2728     0        8.2589        8.2589     1802    0.00%
    183   144        8.2589     1        8.2589        8.2589     1802    0.00%
    184   144        8.2728     0        8.2589        8.2589     1802    0.00%
    185   145        8.2589     1        8.2589        8.2589     1802    0.00%
    186   145        8.2723     0        8.2589        8.2589     1802    0.00%
    187   146        8.2589     1        8.2589        8.2589     1802    0.00%
    188   146        8.2723     0        8.2589        8.2589     1802    0.00%
Elapsed time = 364.69 sec. (70602.26 ticks, tree = 1.91 MB, solutions = 1)
    203   154        8.2589     0        8.2589        8.2589     1802    0.00%
    204   154        8.2716     0        8.2589        8.2589     1802    0.00%
    205   155        8.2589     1        8.2589        8.2589     1802    0.00%
    206   155        8.2714     0        8.2589        8.2589     1802    0.00%
    207   156        8.2589     1        8.2589        8.2589     1802    0.00%
    208   156        8.2714     0        8.2589        8.2589     1802    0.00%
    209   157        8.2589     1        8.2589        8.2589     1802    0.00%
    210   157        8.2713     0        8.2589        8.2589     1802    0.00%
    211   158        8.2589     1        8.2589        8.2589     1802    0.00%
    212   158        8.2713     0        8.2589        8.2589     1802    0.00%
Elapsed time = 367.12 sec. (72205.04 ticks, tree = 2.21 MB, solutions = 1)
    227   166        8.2589     1        8.2589        8.2589     1802    0.00%
    228   166        8.2709     0        8.2589        8.2589     1802    0.00%
    229   167        8.2589     1        8.2589        8.2589     1802    0.00%
    230   167        8.2709     0        8.2589        8.2589     1802    0.00%
    231   168        8.2589     1        8.2589        8.2589     1802    0.00%
    232   168        8.2708     0        8.2589        8.2589     1802    0.00%
    233   169        8.2589     1        8.2589        8.2589     1802    0.00%
    234   169        8.2708     0        8.2589        8.2589     1802    0.00%
    235   170        8.2589     1        8.2589        8.2589     1802    0.00%
    273   189        8.2589     1        8.2589        8.2589     1802    0.00%
Elapsed time = 372.05 sec. (76037.25 ticks, tree = 3.24 MB, solutions = 1)
    333   219        8.2589     1        8.2589        8.2589     1802    0.00%
    334   219        8.2676     0        8.2589        8.2589     1802    0.00%
    335   220        8.2589     1        8.2589        8.2589     1802    0.00%
    336   220        8.2676     0        8.2589        8.2589     1802    0.00%
    337   221        8.2589     1        8.2589        8.2589     1802    0.00%
    338   221        8.2675     0        8.2589        8.2589     1802    0.00%
    339   222        8.2589     1        8.2589        8.2589     1802    0.00%
    340   222        8.2675     0        8.2589        8.2589     1802    0.00%
    341   223        8.2589     1        8.2589        8.2589     1802    0.00%
    342   223        8.2674     0        8.2589        8.2589     1802    0.00%
Elapsed time = 377.19 sec. (80445.97 ticks, tree = 4.50 MB, solutions = 1)
    403   254        8.2589     0        8.2589        8.2589     1802    0.00%
    404   254        8.2661     0        8.2589        8.2589     1802    0.00%
    405   255        8.2589     1        8.2589        8.2589     1802    0.00%
    406   255        8.2659     0        8.2589        8.2589     1802    0.00%
    407   256        8.2589     1        8.2589        8.2589     1802    0.00%
    408   256        8.2658     0        8.2589        8.2589     1802    0.00%
    409   257        8.2589     1        8.2589        8.2589     1802    0.00%
    410   257        8.2658     0        8.2589        8.2589     1802    0.00%
    411   258        8.2589     1        8.2589        8.2589     1802    0.00%
    412   258        8.2657     0        8.2589        8.2589     1802    0.00%
Elapsed time = 384.01 sec. (84972.46 ticks, tree = 5.49 MB, solutions = 1)
    474   289        8.2645     0        8.2589        8.2589     1802    0.00%
    475   290        8.2589     1        8.2589        8.2589     1802    0.00%
    476   290        8.2644     0        8.2589        8.2589     1802    0.00%
    477   291        8.2589     1        8.2589        8.2589     1802    0.00%
    478   291        8.2644     0        8.2589        8.2589     1802    0.00%
    479   292        8.2589     1        8.2589        8.2589     1802    0.00%
    480   292        8.2643     0        8.2589        8.2589     1802    0.00%
    481   293        8.2589     1        8.2589        8.2589     1802    0.00%
    482   293        8.2643     0        8.2589        8.2589     1802    0.00%
    483   294        8.2589     1        8.2589        8.2589     1802    0.00%
Elapsed time = 388.68 sec. (89377.74 ticks, tree = 6.72 MB, solutions = 1)
    541   323        8.2589     1        8.2589        8.2589     1802    0.00%
    542   323        8.2635     0        8.2589        8.2589     1802    0.00%
    543   324        8.2589     1        8.2589        8.2589     1802    0.00%
    544   324        8.2634     0        8.2589        8.2589     1802    0.00%
    545   325        8.2589     1        8.2589        8.2589     1802    0.00%
    546   325        8.2634     0        8.2589        8.2589     1802    0.00%
    547   326        8.2589     1        8.2589        8.2589     1802    0.00%
    548   326        8.2633     0        8.2589        8.2589     1802    0.00%
    549   327        8.2589     1        8.2589        8.2589     1802    0.00%
    550   327        8.2633     0        8.2589        8.2589     1802    0.00%
Elapsed time = 394.46 sec. (93789.47 ticks, tree = 7.72 MB, solutions = 1)
    604   354        8.2627     0        8.2589        8.2589     1802    0.00%
    605   355        8.2589     1        8.2589        8.2589     1802    0.00%
    606   355        8.2627     0        8.2589        8.2589     1802    0.00%
    607   356        8.2589     1        8.2589        8.2589     1802    0.00%
    608   356        8.2625     0        8.2589        8.2589     1802    0.00%
    609   357        8.2589     1        8.2589        8.2589     1802    0.00%
    610   357        8.2625     0        8.2589        8.2589     1802    0.00%
    611   358        8.2589     1        8.2589        8.2589     1802    0.00%
    612   358        8.2625     0        8.2589        8.2589     1802    0.00%
    613   359        8.2589     1        8.2589        8.2589     1802    0.00%
Elapsed time = 400.30 sec. (98207.32 ticks, tree = 8.72 MB, solutions = 1)
